proyfinal/src/viki/013/experimentInOfficeAgust.take6.output/2c3e1de6-ae72-4544-b1c8-1b4d5e115b4e.als.dat
{'cnf.clauses': '118081',
 'cnf.totvars': '69608',
 'conflict literals': '5',
 'conflicts': '5',
 'decisions': '4986',
 'memused.mb': '17.69',
 'outcome': 'UNSAT',
 'propagations': '29907',
 'restarts': '1',
 'solver.msecs': 31,
 'task.msecs': 78}
