proyfinal/src/viki/013/experimentInOfficeAgust.take6.output/2c3e1de6-ae72-4544-b1c8-1b4d5e115b4e.als.out
Reading from standard input... Use '--help' for help.
============================[ Problem Statistics ]=============================
|                                                                             |
|  Number of variables:         69608                                         |
|  Number of clauses:          118081                                         |
|  Parse time:                   0.02 s                                       |
|                                                                             |
============================[ Search Statistics ]==============================
| Conflicts |          ORIGINAL         |          LEARNT          | Progress |
|           |    Vars  Clauses Literals |    Limit  Clauses Lit/Cl |          |
===============================================================================
===============================================================================
restarts              : 1
conflicts             : 5              (160 /sec)
decisions             : 4986           (0.00 % random) (159150 /sec)
propagations          : 29907          (954611 /sec)
conflict literals     : 5              (0.00 % deleted)
Memory used           : 17.69 MB
CPU time              : 0.031329 s

UNSATISFIABLE
